
  22   10
  10   10   10   10   10   10   10   10   10   10

   0   0   0   0   0   0   0   0   0   0   0   5 2 8 19 20 21 
   9   0   0   0   0   0   0   0   0  10   0   4 18 16 5 3 
   8   0   0   0  10   0   0   0   0   0   0   2 17 4 
   2   0   0   0   0   0  10   0   0   0   0   4 15 11 9 6 
   9   0   0  10   0   0   0   0   0   0   0   2 11 10 
   8   0   0   0   0   0   0   0   0   0  10   1 7 
   9   0   0   0  10   0   0   0   0   0   0   3 14 13 12 
   3   0   0   0   0  10   0   0   0   0   0   2 16 10 
   8  10   0   0   0   0   0   0   0   0   0   1 10 
   5   0   0   0  10   0   0   0   0   0   0   1 12 
   2   0   0   0   0  10   0   0   0   0   0   1 13 
   5   0   0   0   0  10   0   0   0   0   0   1 22
  10   0   0   0   0   0   0  10   0   0   0   1 22
  10   0   0   0   0   0   0   0  10   0   0   1 22
   9   0   0   0  10   0   0   0   0   0   0   1 22
   5   0   0   0   0   0   0   0   0   0  10   1 22
   8   0   0  10   0   0   0   0   0   0   0   1 22
  10  10   0   0   0   0   0   0   0   0   0   1 22
   9   0   0  10   0   0   0   0   0   0   0   1 22
   2   0   0   0   0   0  10   0   0   0   0   1 22
   6   0  10   0   0   0   0   0   0   0   0   1 22
   0   0   0   0   0   0   0   0   0   0   0   0 
